proyfinal/src/viki/013/experimentInOfficeAgust.take6.output/9b937066-9173-40a9-96b6-e9ed8e156aff.als.out
Reading from standard input... Use '--help' for help.
============================[ Problem Statistics ]=============================
|                                                                             |
|  Number of variables:         87638                                         |
|  Number of clauses:          161767                                         |
|  Parse time:                   0.03 s                                       |
|                                                                             |
============================[ Search Statistics ]==============================
| Conflicts |          ORIGINAL         |          LEARNT          | Progress |
|           |    Vars  Clauses Literals |    Limit  Clauses Lit/Cl |          |
===============================================================================
|       100 |   63877   110549   276102 |    40534      100     31 | 27.113 % |
|       250 |   55134    84425   211851 |    44588      244     29 | 37.089 % |
|       475 |   55134    84425   211851 |    49046      469     35 | 37.089 % |
|       812 |   55134    84425   211851 |    53951      806     31 | 37.089 % |
|      1318 |   54852    83730   209944 |    59346     1309     54 | 37.411 % |
|      2077 |   54557    82555   207140 |    65281     2007     59 | 37.747 % |
|      3216 |   54423    82003   205802 |    71809     3128     74 | 37.900 % |
|      4924 |   54034    80678   202511 |    78990     4755     68 | 38.344 % |
|      7486 |   53117    77436   194573 |    86889     7001     70 | 39.390 % |
|     11330 |   53032    77011   193645 |    95578     9839     65 | 39.487 % |
|     17096 |   52655    75317   189722 |   105136    13657     64 | 39.918 % |
===============================================================================
restarts              : 78
conflicts             : 22175          (7800 /sec)
decisions             : 70985          (0.00 % random) (24968 /sec)
propagations          : 29012481       (10204696 /sec)
conflict literals     : 1359868        (44.78 % deleted)
Memory used           : 30.43 MB
CPU time              : 2.84305 s

UNSATISFIABLE
